set VV := 0 1 2 3 4 5 6 7 8 9 10 11 12 13 14 15 16 17 18 19 20 21 22 ;
set VS := 0 1 2 3 4 5 6 7 8 9 10 11 12 13 14 15 16 17 18 19 20 21 22 23 24 25 26 27 28 29 30 31 32 33 34 35 36 37 38 39 40 41 42 43 44 45 46 47 48 49 ;
param cv := 
0 13
1 21
2 17
3 15
4 21
5 25
6 22
7 10
8 11
9 15
10 14
11 12
12 22
13 23
14 21
15 21
16 18
17 17
18 21
19 24
20 20
21 12
22 16
;
param cs := 
0 23
1 38
2 40
3 20
4 36
5 22
6 36
7 36
8 40
9 38
10 26
11 33
12 35
13 25
14 38
15 40
16 38
17 36
18 36
19 31
20 37
21 40
22 20
23 38
24 24
25 33
26 24
27 30
28 33
29 32
30 34
31 39
32 34
33 38
34 21
35 35
36 35
37 40
38 33
39 26
40 29
41 35
42 40
43 34
44 31
45 35
46 26
47 27
48 28
49 32
;
param bv:	 0 1 2 3 4 5 6 7 8 9 10 11 12 13 14 15 16 17 18 19 20 21 22 := 
		0 0 0 0 0 0 0 0 0 11 14 0 0 0 0 0 0 0 16 16 0 0 0 0 
		1 0 0 0 0 0 22 0 0 0 0 0 0 0 0 0 0 0 0 0 13 0 0 0 
		2 0 0 0 0 0 0 0 22 0 0 17 0 0 0 0 0 0 0 0 0 0 0 0 
		3 0 0 0 0 0 0 0 0 0 0 0 0 0 0 0 0 0 19 0 0 15 0 0 
		4 0 0 0 0 0 0 10 0 0 0 0 0 0 22 0 0 0 0 0 0 24 0 0 
		5 0 0 0 0 0 0 0 0 0 0 0 0 0 10 18 0 0 0 0 0 0 14 21 
		6 0 0 0 0 0 0 0 0 0 0 17 0 0 0 0 0 0 0 0 20 0 0 0 
		7 0 0 0 0 0 0 0 0 15 17 0 15 15 0 0 0 0 0 0 0 0 0 0 
		8 0 0 0 0 0 0 0 0 0 0 0 0 0 0 0 0 0 12 0 0 0 0 0 
		9 0 0 0 0 0 0 0 0 0 0 0 22 0 0 0 0 0 14 24 0 0 0 0 
		10 0 0 0 0 0 0 0 0 0 0 0 0 0 0 0 0 0 0 0 18 0 0 0 
		11 0 0 0 0 0 0 0 0 0 0 0 0 0 0 0 0 0 0 18 0 0 0 0 
		12 0 0 0 0 0 0 0 0 0 0 0 0 0 0 0 0 23 0 0 0 16 0 0 
		13 0 0 0 0 0 0 0 0 0 0 0 0 0 0 0 0 0 0 0 13 0 0 0 
		14 0 0 0 0 0 0 0 0 0 0 0 0 0 0 0 0 0 0 0 0 0 17 0 
		15 0 0 0 0 0 0 0 0 0 0 0 0 0 0 0 0 24 0 0 0 14 0 0 
		16 0 0 0 0 0 0 0 0 0 0 0 0 0 0 0 0 0 0 18 0 0 0 0 
		17 0 0 0 0 0 0 0 0 0 0 0 0 0 0 0 0 0 0 0 21 11 0 25 
		18 0 0 0 0 0 0 0 0 0 0 0 0 0 0 0 0 0 0 0 0 0 0 19 
		19 0 0 0 0 0 0 0 0 0 0 0 0 0 0 0 0 0 0 0 0 0 0 22 
		20 0 0 0 0 0 0 0 0 0 0 0 0 0 0 0 0 0 0 0 0 0 0 0 
		21 0 0 0 0 0 0 0 0 0 0 0 0 0 0 0 0 0 0 0 0 0 0 0 
		22 0 0 0 0 0 0 0 0 0 0 0 0 0 0 0 0 0 0 0 0 0 0 0 
;
param bs:	 0 1 2 3 4 5 6 7 8 9 10 11 12 13 14 15 16 17 18 19 20 21 22 23 24 25 26 27 28 29 30 31 32 33 34 35 36 37 38 39 40 41 42 43 44 45 46 47 48 49 := 
		0 0 0 0 0 0 0 0 0 0 0 0 0 0 0 0 0 0 0 0 0 37 0 0 0 34 0 32 0 30 0 0 0 0 0 0 0 0 0 0 0 0 0 0 0 0 0 0 0 0 0 
		1 0 0 0 0 0 0 0 0 0 0 0 0 0 0 0 22 0 0 0 0 0 0 0 0 0 0 0 0 26 0 0 0 0 0 0 0 39 39 0 0 0 0 0 0 0 0 0 20 0 0 
		2 0 0 0 0 30 0 0 0 0 0 0 0 0 0 0 0 0 26 34 0 0 0 0 0 0 33 0 0 0 0 0 0 21 0 0 0 0 0 0 0 0 0 0 0 0 0 0 0 0 0 
		3 0 0 0 0 0 0 27 0 0 0 0 0 0 0 0 0 0 0 27 0 0 0 0 0 0 0 0 0 0 0 0 0 0 0 0 0 0 0 27 0 0 0 0 0 0 0 0 0 0 0 
		4 0 0 30 0 0 38 0 0 21 0 0 0 0 0 0 0 0 0 0 0 0 0 0 0 0 0 0 0 0 0 0 0 0 0 25 0 23 0 0 0 0 0 0 0 0 0 0 0 0 0 
		5 0 0 0 0 38 0 0 0 0 0 0 0 0 0 0 0 0 0 0 0 0 0 0 0 37 0 0 0 0 0 0 0 0 0 0 0 0 0 0 0 0 0 0 0 0 0 0 0 0 0 
		6 0 0 0 27 0 0 0 0 0 0 0 0 0 0 0 0 31 0 0 0 0 0 0 0 34 0 0 0 0 0 0 0 0 0 0 0 0 28 0 0 0 34 0 0 0 0 20 0 0 35 
		7 0 0 0 0 0 0 0 0 0 28 0 0 0 0 0 0 0 0 0 0 28 0 0 0 31 20 0 24 0 0 0 0 0 0 0 28 0 0 0 31 0 0 0 0 0 0 0 0 0 0 
		8 0 0 0 0 21 0 0 0 0 0 0 0 0 0 0 0 23 0 0 0 0 0 30 0 0 0 0 0 0 0 0 0 26 0 0 0 0 0 0 0 0 0 0 0 0 0 28 0 0 0 
		9 0 0 0 0 0 0 0 28 0 0 0 0 0 0 0 0 0 0 0 0 0 0 0 0 30 0 0 0 0 0 0 0 0 38 0 0 0 0 0 0 27 0 0 0 0 0 0 0 0 0 
		10 0 0 0 0 0 0 0 0 0 0 0 0 0 0 0 0 0 29 0 0 0 0 35 0 0 0 0 0 0 0 0 0 0 0 37 0 0 22 0 0 0 0 0 0 0 0 0 0 0 0 
		11 0 0 0 0 0 0 0 0 0 0 0 0 0 0 0 0 0 0 36 0 0 0 0 0 0 0 0 0 30 0 37 0 0 0 38 0 0 22 0 0 0 0 0 0 0 28 0 0 26 0 
		12 0 0 0 0 0 0 0 0 0 0 0 0 0 0 0 0 0 0 0 0 0 0 0 0 0 0 0 0 0 0 0 40 0 0 0 0 0 0 0 0 24 0 0 0 0 0 0 0 0 0 
		13 0 0 0 0 0 0 0 0 0 0 0 0 0 0 0 31 0 0 0 0 24 39 0 0 24 0 0 0 0 0 0 0 0 0 0 0 0 0 0 0 0 0 33 0 0 0 0 40 0 0 
		14 0 0 0 0 0 0 0 0 0 0 0 0 0 0 0 0 0 0 33 0 0 0 0 0 0 21 0 0 0 0 0 0 0 0 0 31 0 0 0 0 0 0 0 0 0 0 0 0 39 0 
		15 0 22 0 0 0 0 0 0 0 0 0 0 0 31 0 0 27 0 21 22 0 0 0 23 0 23 0 27 0 0 0 0 0 0 0 0 0 0 0 0 0 0 0 0 0 0 0 0 0 0 
		16 0 0 0 0 0 0 31 0 23 0 0 0 0 0 0 27 0 0 0 35 25 0 0 0 0 0 0 0 39 0 0 0 0 25 0 0 0 0 0 0 0 0 32 0 0 0 0 30 0 0 
		17 0 0 26 0 0 0 0 0 0 0 29 0 0 0 0 0 0 0 0 0 0 40 0 0 36 0 0 0 0 0 0 0 0 0 0 29 0 0 22 0 0 0 0 0 0 0 0 0 0 0 
		18 0 0 34 27 0 0 0 0 0 0 0 36 0 0 33 21 0 0 0 0 0 0 0 36 0 0 0 0 0 0 0 0 0 0 0 0 0 20 23 0 0 0 0 0 26 0 0 0 24 0 
		19 0 0 0 0 0 0 0 0 0 0 0 0 0 0 0 22 35 0 0 0 0 0 0 0 22 32 0 39 0 0 0 0 30 0 0 0 0 0 37 0 0 0 0 0 0 0 0 0 0 0 
		20 37 0 0 0 0 0 0 28 0 0 0 0 0 24 0 0 25 0 0 0 0 27 0 0 26 0 0 0 22 0 0 0 0 0 0 0 0 0 0 0 34 0 0 0 0 0 0 0 0 0 
		21 0 0 0 0 0 0 0 0 0 0 0 0 0 39 0 0 0 40 0 0 27 0 0 0 0 0 0 0 0 28 0 0 22 0 0 0 34 0 0 0 26 0 38 0 0 0 0 0 0 0 
		22 0 0 0 0 0 0 0 0 30 0 35 0 0 0 0 0 0 0 0 0 0 0 0 0 0 0 0 0 0 0 0 0 0 0 21 0 0 0 0 0 0 0 0 0 0 0 0 0 0 39 
		23 0 0 0 0 0 0 0 0 0 0 0 0 0 0 0 23 0 0 36 0 0 0 0 0 0 39 0 0 0 0 0 0 0 0 37 0 0 0 0 0 0 26 0 0 0 0 0 0 29 0 
		24 34 0 0 0 0 37 34 31 0 30 0 0 0 24 0 0 0 36 0 22 26 0 0 0 0 0 29 0 0 0 0 0 35 0 0 0 0 0 0 0 0 0 0 0 0 0 0 0 0 0 
		25 0 0 33 0 0 0 0 20 0 0 0 0 0 0 21 23 0 0 0 32 0 0 0 39 0 0 0 0 0 0 0 0 24 0 0 0 0 0 0 0 0 0 0 0 0 0 0 39 0 0 
		26 32 0 0 0 0 0 0 0 0 0 0 0 0 0 0 0 0 0 0 0 0 0 0 0 29 0 0 32 0 0 0 0 35 0 0 0 32 0 0 0 0 0 0 0 0 0 0 0 0 0 
		27 0 0 0 0 0 0 0 24 0 0 0 0 0 0 0 27 0 0 0 39 0 0 0 0 0 0 32 0 0 0 0 0 0 0 0 0 0 29 0 0 0 0 0 0 0 0 0 0 0 0 
		28 30 26 0 0 0 0 0 0 0 0 0 30 0 0 0 0 39 0 0 0 22 0 0 0 0 0 0 0 0 0 0 0 35 0 0 0 0 0 0 0 0 0 0 0 0 0 0 40 0 0 
		29 0 0 0 0 0 0 0 0 0 0 0 0 0 0 0 0 0 0 0 0 0 28 0 0 0 0 0 0 0 0 0 0 0 0 0 0 31 0 0 39 0 0 0 0 0 39 40 0 0 0 
		30 0 0 0 0 0 0 0 0 0 0 0 37 0 0 0 0 0 0 0 0 0 0 0 0 0 0 0 0 0 0 0 36 0 0 0 0 0 0 0 0 0 0 0 0 0 0 0 0 0 0 
		31 0 0 0 0 0 0 0 0 0 0 0 0 40 0 0 0 0 0 0 0 0 0 0 0 0 0 0 0 0 0 36 0 0 0 0 0 0 0 0 0 0 0 38 0 0 0 0 34 0 0 
		32 0 0 21 0 0 0 0 0 26 0 0 0 0 0 0 0 0 0 0 30 0 22 0 0 35 24 35 0 35 0 0 0 0 0 0 0 0 0 0 0 0 0 0 29 0 0 0 0 0 0 
		33 0 0 0 0 0 0 0 0 0 38 0 0 0 0 0 0 25 0 0 0 0 0 0 0 0 0 0 0 0 0 0 0 0 0 0 0 0 0 0 0 0 0 0 0 39 27 0 0 0 0 
		34 0 0 0 0 25 0 0 0 0 0 37 38 0 0 0 0 0 0 0 0 0 0 21 37 0 0 0 0 0 0 0 0 0 0 0 0 0 0 0 0 0 0 0 32 0 0 0 0 0 40 
		35 0 0 0 0 0 0 0 28 0 0 0 0 0 0 31 0 0 29 0 0 0 0 0 0 0 0 0 0 0 0 0 0 0 0 0 0 0 30 0 0 0 0 29 0 0 26 0 22 40 0 
		36 0 39 0 0 23 0 0 0 0 0 0 0 0 0 0 0 0 0 0 0 0 34 0 0 0 0 32 0 0 31 0 0 0 0 0 0 0 0 0 0 0 0 0 40 0 0 28 38 0 0 
		37 0 39 0 0 0 0 28 0 0 0 22 22 0 0 0 0 0 0 20 0 0 0 0 0 0 0 0 29 0 0 0 0 0 0 0 30 0 0 0 25 0 0 0 0 0 0 0 0 0 0 
		38 0 0 0 27 0 0 0 0 0 0 0 0 0 0 0 0 0 22 23 37 0 0 0 0 0 0 0 0 0 0 0 0 0 0 0 0 0 0 0 0 0 0 0 0 0 24 0 0 29 24 
		39 0 0 0 0 0 0 0 31 0 0 0 0 0 0 0 0 0 0 0 0 0 0 0 0 0 0 0 0 0 39 0 0 0 0 0 0 0 25 0 0 0 35 26 0 0 0 0 0 0 0 
		40 0 0 0 0 0 0 0 0 0 27 0 0 24 0 0 0 0 0 0 0 34 26 0 0 0 0 0 0 0 0 0 0 0 0 0 0 0 0 0 0 0 0 0 0 0 0 0 0 31 0 
		41 0 0 0 0 0 0 34 0 0 0 0 0 0 0 0 0 0 0 0 0 0 0 0 26 0 0 0 0 0 0 0 0 0 0 0 0 0 0 0 35 0 0 0 36 31 0 0 0 0 0 
		42 0 0 0 0 0 0 0 0 0 0 0 0 0 33 0 0 32 0 0 0 0 38 0 0 0 0 0 0 0 0 0 38 0 0 0 29 0 0 0 26 0 0 0 0 0 0 0 0 0 0 
		43 0 0 0 0 0 0 0 0 0 0 0 0 0 0 0 0 0 0 0 0 0 0 0 0 0 0 0 0 0 0 0 0 29 0 32 0 40 0 0 0 0 36 0 0 0 0 0 0 0 0 
		44 0 0 0 0 0 0 0 0 0 0 0 0 0 0 0 0 0 0 26 0 0 0 0 0 0 0 0 0 0 0 0 0 0 39 0 0 0 0 0 0 0 31 0 0 0 0 0 0 0 21 
		45 0 0 0 0 0 0 0 0 0 0 0 28 0 0 0 0 0 0 0 0 0 0 0 0 0 0 0 0 0 39 0 0 0 27 0 26 0 0 24 0 0 0 0 0 0 0 0 0 0 0 
		46 0 0 0 0 0 0 20 0 28 0 0 0 0 0 0 0 0 0 0 0 0 0 0 0 0 0 0 0 0 40 0 0 0 0 0 0 28 0 0 0 0 0 0 0 0 0 0 0 0 25 
		47 0 20 0 0 0 0 0 0 0 0 0 0 0 40 0 0 30 0 0 0 0 0 0 0 0 39 0 0 40 0 0 34 0 0 0 22 38 0 0 0 0 0 0 0 0 0 0 0 0 0 
		48 0 0 0 0 0 0 0 0 0 0 0 26 0 0 39 0 0 0 24 0 0 0 0 29 0 0 0 0 0 0 0 0 0 0 0 40 0 0 29 0 31 0 0 0 0 0 0 0 0 0 
		49 0 0 0 0 0 0 35 0 0 0 0 0 0 0 0 0 0 0 0 0 0 0 39 0 0 0 0 0 0 0 0 0 0 0 40 0 0 0 24 0 0 0 0 0 21 0 25 0 0 0 
;
